TCS_Benchmarks/redos_fix/corpus1_output_distinct_1299_1298_1_0.txt
(.*)([0-9A-Za-z]+)
(.*)((p|a)=)([0-9A-Za-z]+)